! ============================================================================
! SIH26051 shelter shoebox model - GENERATED by simulation/energyplus/make_idf.py
! Location: Prayagraj (25.4358, 81.8463)  year 2024
! ============================================================================
Version,26.1;

Building,
  SIH26051 Shelter Demo,           !- Name
  0.0,                             !- North Axis
  City,                            !- Terrain
  0.04,                            !- Loads Convergence Tolerance Value
  0.4,                             !- Temperature Convergence Tolerance Value
  FullExterior,                    !- Solar Distribution
  25,                              !- Maximum Number of Warmup Days
  6;                               !- Minimum Number of Warmup Days

Timestep,4;

GlobalGeometryRules,
  UpperLeftCorner,                 !- Starting Vertex Position
  CounterClockwise,                !- Vertex Entry Direction
  World;                           !- Coordinate System

HeatBalanceAlgorithm,ConductionTransferFunction;
SurfaceConvectionAlgorithm:Inside,TARP;
SurfaceConvectionAlgorithm:Outside,DOE-2;

SimulationControl,
  No,                              !- Do Zone Sizing
  No,                              !- Do System Sizing
  No,                              !- Do Plant Sizing
  Yes,                             !- Run Simulation for Sizing Periods
  Yes;                             !- Run Simulation for Weather File Run Periods

Site:Location,
  Prayagraj,                     !- Name
  25.4358,                 !- Latitude {deg}
  81.8463,                !- Longitude {deg}
  5.5,                             !- Time Zone {{hr}} (GMT+5.5)
  98;              !- Elevation {m}

RunPeriod,
  Full Year,                       !- Name
  1, 1, ,                         !- Begin Month, Begin Day, Begin Year (blank = EPW year)
  12, 31, ,                       !- End Month, End Day, End Year
  ,                                !- Day of Week for Start Day
  ,                                !- Use Weather File Holidays/Special Days
  ,                                !- Use Weather File Daylight Saving
  No,                              !- Apply Weekend Holiday Rule
  Yes,                             !- Use Weather File Rain Indicators
  Yes;                             !- Use Weather File Snow Indicators

Material,
  SIH01_brick,                        !- Name
  MediumRough,                   !- Roughness
  0.2000,                   !- Thickness {m}
  0.7200,    !- Conductivity {W/m-K}
  1920.0,  !- Density {kg/m3}
  840.0,  !- Specific Heat {J/kg-K}
  0.90,     !- Thermal Absorptance
  0.70,  !- Solar Absorptance
  0.70;  !- Visible Absorptance

Material,
  SIH02_rcc_slab,                        !- Name
  MediumRough,                   !- Roughness
  0.1200,                   !- Thickness {m}
  1.7000,    !- Conductivity {W/m-K}
  2300.0,  !- Density {kg/m3}
  880.0,  !- Specific Heat {J/kg-K}
  0.91,     !- Thermal Absorptance
  0.65,  !- Solar Absorptance
  0.65;  !- Visible Absorptance

Material,
  SIH03_concrete,                        !- Name
  MediumRough,                   !- Roughness
  0.1000,                   !- Thickness {m}
  1.7000,    !- Conductivity {W/m-K}
  2300.0,  !- Density {kg/m3}
  880.0,  !- Specific Heat {J/kg-K}
  0.91,     !- Thermal Absorptance
  0.65,  !- Solar Absorptance
  0.65;  !- Visible Absorptance

WindowMaterial:SimpleGlazingSystem,
  WinGlaz,                         !- Name
  5.8,        !- U-Factor {W/m2-K}
  0.82,           !- Solar Heat Gain Coefficient
  0.75;                            !- Visible Transmittance

Construction,
  Con_south_wall,     !- Name
  SIH01_brick;                          !- Layer
Construction,
  Con_north_wall,     !- Name
  SIH01_brick;                          !- Layer
Construction,
  Con_east_wall,     !- Name
  SIH01_brick;                          !- Layer
Construction,
  Con_west_wall,     !- Name
  SIH01_brick;                          !- Layer
Construction,
  Con_roof,     !- Name
  SIH02_rcc_slab;                          !- Layer
Construction,
  Con_floor,     !- Name
  SIH03_concrete;                          !- Layer
Construction,WinCon,WinGlaz;

Zone,
  ShelterZone,                     !- Name
  0,                               !- Direction of Relative North
  0, 0, 0,                         !- X,Y,Z Origin
  1,                               !- Type (1 = simple zone)
  1,                               !- Multiplier
  2.60,              !- Ceiling Height {m}
  23.40,              !- Volume {m3}
  9.00,  !- Floor Area {m2}
  ,                                !- Zone Inside Convection Algorithm
  ,                                !- Zone Outside Convection Algorithm
  ,                                !- Part of Total Floor Area
  ,                                !- Zone-Averaged Convection Algorithm
  ;                                !- Additional Properties

BuildingSurface:Detailed,
  south_wall,                    !- Name
  Wall,                        !- Surface Type
  Con_south_wall,     !- Construction Name
  ShelterZone,                    !- Zone Name
  ,                               !- Space Name
  Outdoors,                       !- Outside Boundary Condition
  ,                               !- Outside Boundary Condition Object
  SunExposed,                     !- Sun Exposure
  WindExposed,                    !- Wind Exposure
  1.0,                            !- View Factor to Ground
  4,                              !- Number of Vertices
  0.000,0.000,2.600, 0.000,0.000,0.000, 3.000,0.000,0.000, 3.000,0.000,2.600;

BuildingSurface:Detailed,
  north_wall,                    !- Name
  Wall,                        !- Surface Type
  Con_north_wall,     !- Construction Name
  ShelterZone,                    !- Zone Name
  ,                               !- Space Name
  Outdoors,                       !- Outside Boundary Condition
  ,                               !- Outside Boundary Condition Object
  SunExposed,                     !- Sun Exposure
  WindExposed,                    !- Wind Exposure
  1.0,                            !- View Factor to Ground
  4,                              !- Number of Vertices
  3.000,3.000,2.600, 3.000,3.000,0.000, 0.000,3.000,0.000, 0.000,3.000,2.600;

BuildingSurface:Detailed,
  east_wall,                    !- Name
  Wall,                        !- Surface Type
  Con_east_wall,     !- Construction Name
  ShelterZone,                    !- Zone Name
  ,                               !- Space Name
  Outdoors,                       !- Outside Boundary Condition
  ,                               !- Outside Boundary Condition Object
  SunExposed,                     !- Sun Exposure
  WindExposed,                    !- Wind Exposure
  1.0,                            !- View Factor to Ground
  4,                              !- Number of Vertices
  3.000,0.000,2.600, 3.000,0.000,0.000, 3.000,3.000,0.000, 3.000,3.000,2.600;

BuildingSurface:Detailed,
  west_wall,                    !- Name
  Wall,                        !- Surface Type
  Con_west_wall,     !- Construction Name
  ShelterZone,                    !- Zone Name
  ,                               !- Space Name
  Outdoors,                       !- Outside Boundary Condition
  ,                               !- Outside Boundary Condition Object
  SunExposed,                     !- Sun Exposure
  WindExposed,                    !- Wind Exposure
  1.0,                            !- View Factor to Ground
  4,                              !- Number of Vertices
  0.000,3.000,2.600, 0.000,3.000,0.000, 0.000,0.000,0.000, 0.000,0.000,2.600;

BuildingSurface:Detailed,
  roof,                    !- Name
  Roof,                        !- Surface Type
  Con_roof,     !- Construction Name
  ShelterZone,                    !- Zone Name
  ,                               !- Space Name
  Outdoors,                       !- Outside Boundary Condition
  ,                               !- Outside Boundary Condition Object
  SunExposed,                     !- Sun Exposure
  WindExposed,                    !- Wind Exposure
  1.0,                            !- View Factor to Ground
  4,                              !- Number of Vertices
  0.000,0.000,2.600, 3.000,0.000,2.600, 3.000,3.000,2.600, 0.000,3.000,2.600;

BuildingSurface:Detailed,
  floor,                    !- Name
  Floor,                        !- Surface Type
  Con_floor,     !- Construction Name
  ShelterZone,                    !- Zone Name
  ,                               !- Space Name
  Outdoors,                       !- Outside Boundary Condition
  ,                               !- Outside Boundary Condition Object
  SunExposed,                     !- Sun Exposure
  WindExposed,                    !- Wind Exposure
  1.0,                            !- View Factor to Ground
  4,                              !- Number of Vertices
  0.000,0.000,0.000, 0.000,3.000,0.000, 3.000,3.000,0.000, 3.000,0.000,0.000;

FenestrationSurface:Detailed,
  window,                    !- Name
  Window,                        !- Surface Type
  WinCon,                          !- Construction Name
  south_wall,               !- Building Surface Name
  ,                               !- Outside Boundary Condition Object
  0.5,                            !- View Factor to Ground
  ,                               !- Frame and Divider Name
  1,                              !- Multiplier
  4,                              !- Number of Vertices
  0.900,0.000,5.460, 0.900,0.000,2.340, 2.100,0.000,2.340, 2.100,0.000,5.460;

FenestrationSurface:Detailed,
  door,                    !- Name
  Door,                        !- Surface Type
  Con_west_wall,                          !- Construction Name
  west_wall,               !- Building Surface Name
  ,                               !- Outside Boundary Condition Object
  0.5,                            !- View Factor to Ground
  ,                               !- Frame and Divider Name
  1,                              !- Multiplier
  4,                              !- Number of Vertices
  0.000,1.950,5.070, 0.000,1.950,0.000, 0.000,1.050,0.000, 0.000,1.050,5.070;

Output:Variable,*,Site Outdoor Air Drybulb Temperature,hourly;
Output:Variable,*,Zone Mean Air Temperature,hourly;
Output:Variable,*,Zone Air Temperature,hourly;
Output:Variable,*,Surface Outside Face Incident Solar Radiation Rate per Area,hourly;
Output:Variable,*,Zone Windows Total Transmitted Solar Radiation Rate,hourly;
Output:Variable,*,Zone Ventilation Total Heat Loss Energy,hourly;
Output:SQLite,Simple;
Output:VariableDictionary,Regular;
